45
raw_data/mm-rcpsp/MMLIB50/J509_5.mm
Time limit set to 60 seconds
Running CP solver
/home/omastto1/General-Optimization-Solver/src/solvers/mmrcpsp.py:42(stream:276:6): Warning: Cumulative expression 'pulse': height is zero, expression is zero everywhere.
                                                                                               VarCumulAtom_419 = pulse(task_0_mode_0, 0)
/home/omastto1/General-Optimization-Solver/src/solvers/mmrcpsp.py:42(stream:276:3908): Warning: Cumulative expression 'pulse': height is zero, expression is zero everywhere.
                                                                                                  VarCumulAtom_570 = pulse(task_51_mode_0, 0)
/home/omastto1/General-Optimization-Solver/src/solvers/mmrcpsp.py:42(stream:277:6): Warning: Cumulative expression 'pulse': height is zero, expression is zero everywhere.
                                                                                               VarCumulAtom_574 = pulse(task_0_mode_0, 0)
/home/omastto1/General-Optimization-Solver/src/solvers/mmrcpsp.py:42(stream:277:3908): Warning: Cumulative expression 'pulse': height is zero, expression is zero everywhere.
                                                                                                  VarCumulAtom_725 = pulse(task_51_mode_0, 0)
 ! --------------------------------------------------- CP Optimizer 20.1.0.0 --
 ! Minimization problem - 205 variables, 269 constraints
 ! TimeLimit            = 60
 ! Workers              = 14
 ! LogVerbosity         = Terse
 ! Initial process time : 0.00s (0.00s extraction + 0.00s propagation)
 !  . Log search space  : 520.7 (before), 520.7 (after)
 !  . Memory usage      : 1.3 MB (before), 1.3 MB (after)
 ! Using parallel search with 14 workers.
 ! ----------------------------------------------------------------------------
 !          Best Branches  Non-fixed    W       Branch decision
                        0        205                 -
 + New bound is 20
 ! Using iterative diving.
 ! Using temporal relaxation.
 *            52      116  0.80s        1      (gap is 61.54%)
 *            50      315  0.80s        1      (gap is 60.00%)
 *            49      649  0.80s        1      (gap is 59.18%)
 *            40     1098  0.80s        1      (gap is 50.00%)
 *            37     1052  0.80s        3      (gap is 45.95%)
 *            35     1239  0.80s        3      (gap is 42.86%)
 *            34     3062  1.50s        1      (gap is 41.18%)
 *            32     4002  1.50s        1      (gap is 37.50%)
 *            31     9375  3.64s        9      (gap is 35.48%)
 ! Using failure-directed search.
 *            30    31062  8.67s        6      (gap is 33.33%)
 *            29    89475  28.54s       6      (gap is 31.03%)
 ! ----------------------------------------------------------------------------
 ! Search terminated by limit, 11 solutions found.
 ! Best objective         : 29 (gap is 31.03%)
 ! Best bound             : 20
 ! ----------------------------------------------------------------------------
 ! Number of branches     : 5324426
 ! Number of fails        : 1008216
 ! Total memory usage     : 19.8 MB (19.6 MB CP Optimizer + 0.2 MB Concert)
 ! Time spent in solve    : 60.03s (60.03s engine + 0.00s extraction)
 ! Search speed (br. / s) : 88710.9
 ! ----------------------------------------------------------------------------
task_0: (start=0, end=0, size=0, length=0)
Task 0 is scheduled in mode 0 from 0 to 0
task_1: (start=0, end=3, size=3, length=3)
Task 1 is scheduled in mode 0 from 0 to 3
task_2: (start=0, end=4, size=4, length=4)
Task 2 is scheduled in mode 0 from 0 to 4
task_3: (start=1, end=4, size=3, length=3)
Task 3 is scheduled in mode 0 from 1 to 4
task_4: (start=0, end=2, size=2, length=2)
Task 4 is scheduled in mode 0 from 0 to 2
task_5: (start=0, end=1, size=1, length=1)
Task 5 is scheduled in mode 0 from 0 to 1
task_6: (start=0, end=10, size=10, length=10)
Task 6 is scheduled in mode 2 from 0 to 10
task_7: (start=0, end=2, size=2, length=2)
Task 7 is scheduled in mode 0 from 0 to 2
task_8: (start=4, end=7, size=3, length=3)
Task 8 is scheduled in mode 0 from 4 to 7
task_9: (start=5, end=13, size=8, length=8)
Task 9 is scheduled in mode 2 from 5 to 13
task_10: (start=4, end=5, size=1, length=1)
Task 10 is scheduled in mode 0 from 4 to 5
task_11: (start=11, end=13, size=2, length=2)
Task 11 is scheduled in mode 0 from 11 to 13
task_12: (start=9, end=11, size=2, length=2)
Task 12 is scheduled in mode 1 from 9 to 11
task_13: (start=9, end=13, size=4, length=4)
Task 13 is scheduled in mode 0 from 9 to 13
task_14: (start=4, end=9, size=5, length=5)
Task 14 is scheduled in mode 0 from 4 to 9
task_15: (start=9, end=11, size=2, length=2)
Task 15 is scheduled in mode 0 from 9 to 11
task_16: (start=3, end=4, size=1, length=1)
Task 16 is scheduled in mode 0 from 3 to 4
task_17: (start=16, end=19, size=3, length=3)
Task 17 is scheduled in mode 1 from 16 to 19
task_18: (start=13, end=20, size=7, length=7)
Task 18 is scheduled in mode 0 from 13 to 20
task_19: (start=2, end=10, size=8, length=8)
Task 19 is scheduled in mode 1 from 2 to 10
task_20: (start=11, end=13, size=2, length=2)
Task 20 is scheduled in mode 0 from 11 to 13
task_21: (start=11, end=18, size=7, length=7)
Task 21 is scheduled in mode 1 from 11 to 18
task_22: (start=8, end=9, size=1, length=1)
Task 22 is scheduled in mode 0 from 8 to 9
task_23: (start=13, end=14, size=1, length=1)
Task 23 is scheduled in mode 0 from 13 to 14
task_24: (start=10, end=11, size=1, length=1)
Task 24 is scheduled in mode 0 from 10 to 11
task_25: (start=18, end=21, size=3, length=3)
Task 25 is scheduled in mode 1 from 18 to 21
task_26: (start=13, end=19, size=6, length=6)
Task 26 is scheduled in mode 0 from 13 to 19
task_27: (start=2, end=9, size=7, length=7)
Task 27 is scheduled in mode 1 from 2 to 9
task_28: (start=14, end=18, size=4, length=4)
Task 28 is scheduled in mode 0 from 14 to 18
task_29: (start=7, end=8, size=1, length=1)
Task 29 is scheduled in mode 0 from 7 to 8
task_30: (start=11, end=13, size=2, length=2)
Task 30 is scheduled in mode 0 from 11 to 13
task_31: (start=0, end=10, size=10, length=10)
Task 31 is scheduled in mode 2 from 0 to 10
task_32: (start=21, end=22, size=1, length=1)
Task 32 is scheduled in mode 0 from 21 to 22
task_33: (start=22, end=23, size=1, length=1)
Task 33 is scheduled in mode 0 from 22 to 23
task_34: (start=23, end=24, size=1, length=1)
Task 34 is scheduled in mode 0 from 23 to 24
task_35: (start=19, end=23, size=4, length=4)
Task 35 is scheduled in mode 0 from 19 to 23
task_36: (start=9, end=16, size=7, length=7)
Task 36 is scheduled in mode 1 from 9 to 16
task_37: (start=23, end=29, size=6, length=6)
Task 37 is scheduled in mode 0 from 23 to 29
task_38: (start=27, end=29, size=2, length=2)
Task 38 is scheduled in mode 0 from 27 to 29
task_39: (start=21, end=24, size=3, length=3)
Task 39 is scheduled in mode 0 from 21 to 24
task_40: (start=19, end=21, size=2, length=2)
Task 40 is scheduled in mode 1 from 19 to 21
task_41: (start=25, end=27, size=2, length=2)
Task 41 is scheduled in mode 1 from 25 to 27
task_42: (start=24, end=27, size=3, length=3)
Task 42 is scheduled in mode 1 from 24 to 27
task_43: (start=20, end=29, size=9, length=9)
Task 43 is scheduled in mode 2 from 20 to 29
task_44: (start=27, end=29, size=2, length=2)
Task 44 is scheduled in mode 1 from 27 to 29
task_45: (start=24, end=25, size=1, length=1)
Task 45 is scheduled in mode 0 from 24 to 25
task_46: (start=20, end=29, size=9, length=9)
Task 46 is scheduled in mode 2 from 20 to 29
task_47: (start=21, end=29, size=8, length=8)
Task 47 is scheduled in mode 2 from 21 to 29
task_48: (start=21, end=25, size=4, length=4)
Task 48 is scheduled in mode 1 from 21 to 25
task_49: (start=13, end=19, size=6, length=6)
Task 49 is scheduled in mode 0 from 13 to 19
task_50: (start=19, end=21, size=2, length=2)
Task 50 is scheduled in mode 0 from 19 to 21
task_51: (start=29, end=29, size=0, length=0)
Task 51 is scheduled in mode 0 from 29 to 29
Feasible solution found
Objective value: 29
Solution is 45.0 % worse than the lower bound.
